92 4
17 13 15 14
0 0 0 0 0 3 2 3 4
5 1 0 0 0 3 5 8 21
2 3 0 0 0 3 10 18 30
5 0 0 6 0 3 6 14 20
4 9 0 0 0 1 9
1 0 0 7 0 3 7 13 16
8 0 0 4 0 3 11 12 19
5 0 0 2 0 1 77
3 0 0 0 9 1 15
10 0 2 0 0 1 59
3 4 0 0 0 1 49
10 0 0 8 0 3 31 32 39
7 0 10 0 0 1 24
9 0 0 1 0 3 25 48 51
8 9 0 0 0 3 17 41 42
1 0 4 0 0 2 23 27
1 0 10 0 0 2 54 58
4 7 0 0 0 3 19 26 36
2 9 0 0 0 2 22 83
9 0 0 8 0 1 70
2 0 8 0 0 2 33 34
6 0 0 2 0 1 81
6 0 0 0 4 2 67 73
8 3 0 0 0 3 29 56 69
3 0 0 0 2 2 72 78
1 0 0 8 0 1 79
5 2 0 0 0 2 28 61
5 9 0 0 0 1 38
2 0 0 8 0 1 35
5 0 0 10 0 1 46
4 0 0 0 5 1 44
3 0 1 0 0 1 56
7 7 0 0 0 1 50
7 4 0 0 0 1 40
2 0 0 0 9 2 37 45
9 5 0 0 0 1 87
5 2 0 0 0 1 52
9 0 0 8 0 1 43
8 1 0 0 0 3 52 55 62
6 0 0 7 0 1 60
4 0 0 1 0 3 66 70 89
5 4 0 0 0 1 79
7 0 7 0 0 3 47 68 71
1 2 0 0 0 2 71 88
7 0 0 0 9 2 57 59
7 0 0 0 9 2 60 64
3 8 0 0 0 1 49
4 0 1 0 0 1 52
2 4 0 0 0 1 65
8 0 0 3 0 1 83
2 0 8 0 0 1 84
3 0 7 0 0 1 53
8 0 0 0 10 1 54
3 2 0 0 0 1 63
5 0 0 0 10 1 88
1 10 0 0 0 2 58 73
10 0 0 6 0 1 67
2 0 0 6 0 1 90
1 0 0 0 7 1 64
6 0 0 0 5 2 71 76
2 7 0 0 0 1 86
8 0 0 0 1 1 75
9 0 3 0 0 1 64
5 0 0 0 2 1 67
7 0 0 0 3 2 75 90
2 9 0 0 0 2 76 85
7 9 0 0 0 1 82
9 4 0 0 0 2 75 89
7 0 7 0 0 1 74
3 0 3 0 0 3 80 82 84
10 0 0 0 8 1 86
5 0 0 1 0 1 87
9 0 0 0 3 1 84
4 2 0 0 0 1 76
10 0 2 0 0 1 78
3 2 0 0 0 1 88
1 0 0 2 0 1 78
8 0 4 0 0 1 80
3 0 0 2 0 2 82 86
7 6 0 0 0 1 87
7 5 0 0 0 1 85
7 0 0 8 0 1 83
2 0 0 0 1 1 85
4 0 0 9 0 1 91
4 0 0 0 5 1 90
9 0 9 0 0 1 89
8 7 0 0 0 1 91
10 6 0 0 0 1 91
7 0 0 10 0 1 92
8 2 0 0 0 1 92
4 0 0 0 5 1 92
0 0 0 0 0 0
